 vasp.4.6.31 08Feb07 complex
 executed on   ST-HPC (115815509) date 2011.04.05  07:38:55

 INCAR:
 POTCAR:   PAW_PBE Rh 06Sep2000
 POTCAR:   PAW_PBE C 08Apr2002
 POTCAR:   PAW_PBE O 08Apr2002
 POTCAR:   PAW_PBE Rh 06Sep2000
   VRHFIN =Rh: s1 d8

   TITEL  = PAW_PBE Rh 06Sep2000
   POMASS =  102.906; ZVAL   =    9.000    mass and valenz
   ENMAX  =  229.000; ENMIN  =  171.750 eV
   QCUT   =   -4.103; QGAM   =    8.205    optimization parameters

   Description
     l     E      TYP  RCUT    TYP  RCUT
     2   .000     23  2.500
     2   .000     23  2.500
     0   .000     23  2.400
     0   .000     23  2.400
     1  -.200     23  2.500
     1   .000     23  2.500
     3   .000      7   .000

 POTCAR:   PAW_PBE C 08Apr2002
   VRHFIN =C: s2p2

   TITEL  = PAW_PBE C 08Apr2002
   POMASS =   12.011; ZVAL   =    4.000    mass and valenz
   ENMAX  =  400.000; ENMIN  =  300.000 eV
   QCUT   =   -5.516; QGAM   =   11.032    optimization parameters

[...]

 POTCAR:   PAW_PBE O 08Apr2002
   VRHFIN =O: s2p4

   TITEL  = PAW_PBE O 08Apr2002
   POMASS =   16.000; ZVAL   =    6.000    mass and valenz
   ENMAX  =  400.000; ENMIN  =  300.000 eV
   QCUT   =   -5.520; QGAM   =   11.041    optimization parameters

   Description
     l     E      TYP  RCUT    TYP  RCUT
     0   .000     23  1.200
     0  -.700     23  1.200
     1   .000     23  1.520
     1   .600     23  1.520
     2   .000      7  1.500

 PAW_PBE Rh 06Sep2000                   :
 PAW_PBE C 08Apr2002                    :
 PAW_PBE O 08Apr2002                    :

 POSCAR:  {VASPAtoms:66Rh}
  positions in direct lattice
  velocities in cartesian coordinates

 VTST: version 2.03d, (02/18/09)

 CHAIN: initializing optimizer

 OPT: Using VASP Conjugate-Gradient optimizer
 CHAIN: Read ICHAIN            0

 ion  position               nearest neighbor table
   1  0.235  0.103  0.396-  19 2.64  53 2.68   5 2.69  25 2.69  49 2.70   3 2.70  59 2.71  41 2.71
                            55 2.72  37 2.72
   2  0.734  0.103  0.396-  20 2.66   4 2.66   6 2.67  54 2.67  50 2.67  26 2.68  42 2.72  38 2.72
                            56 2.73  60 2.75
   3  0.235  0.438  0.395-  51 2.64  21 2.65  49 2.68   5 2.68   1 2.70  27 2.71  39 2.71  37 2.72
                            55 2.73  57 2.74
   4  0.736  0.434  0.394-  68 2.06   2 2.66  22 2.69  50 2.69  38 2.70  52 2.70  28 2.71   6 2.74
                            40 2.74  56 2.77  58 2.79
   5  0.235  0.770  0.392-  23 2.62  51 2.63  53 2.65   3 2.68   1 2.69  39 2.74  41 2.74  29 2.75
                            59 2.76  57 2.79
   6  0.736  0.773  0.394-  68 2.06   2 2.67  24 2.68  54 2.69  42 2.69  52 2.70  30 2.71  40 2.73
                             4 2.74  60 2.79  58 2.79
   7  0.402  0.105  0.534-   9 2.68  55 2.68  37 2.68  41 2.69  11 2.70  59 2.70  65 2.70  31 2.71
                            44 2.71  48 2.72  26 2.72  61 2.83
   8  0.903  0.103  0.534-  56 2.66  60 2.66  38 2.68  66 2.68  42 2.69  10 2.69  12 2.69  43 2.69
                            62 2.70  47 2.71  25 2.71  32 2.75
   9  0.402  0.436  0.534-  37 2.67  55 2.67   7 2.68  39 2.68  11 2.70  57 2.70  63 2.70  44 2.71
                            33 2.71  46 2.72  28 2.72  61 2.84
  10  0.902  0.437  0.533-  38 2.66  56 2.66  58 2.67  40 2.68   8 2.69  12 2.69  64 2.70  27 2.70
                            43 2.70  62 2.71  34 2.71  45 2.72
  11  0.402  0.770  0.533-  41 2.66  39 2.66  59 2.67  57 2.67  35 2.68  63 2.70   9 2.70   7 2.70
                            65 2.70  30 2.72  48 2.72  46 2.72
  12  0.902  0.770  0.534-  60 2.67  58 2.67  42 2.67  40 2.68   8 2.69  36 2.69  10 2.69  66 2.70
                            64 2.71  29 2.71  45 2.72  47 2.72
  13  0.067  0.099  0.670-  69 2.45  66 2.62  17 2.65  47 2.67  31 2.68  62 2.69  43 2.70  15 2.76

  14  0.568  0.103  0.668-  32 2.62  65 2.63  61 2.63  48 2.65  44 2.65  18 2.69  16 2.69
  15  0.067  0.441  0.670-  69 2.45  64 2.60  17 2.66  62 2.68  45 2.69  33 2.69  43 2.71  13 2.76

[...]

  23  0.405  0.771  0.332-   5 2.62  54 2.63  52 2.63  41 2.65  39 2.65  19 2.69  21 2.69
  24  0.906  0.775  0.330-  70 2.46  53 2.62  20 2.65  42 2.67   6 2.68  51 2.69  40 2.70  22 2.76

  25  0.072  0.103  0.466-  55 2.67  59 2.67  47 2.67  43 2.68  29 2.69   1 2.69  27 2.69  53 2.70
                            49 2.71   8 2.71  38 2.72  42 2.72
  26  0.572  0.104  0.467-  48 2.66  44 2.66  60 2.67  56 2.67   2 2.68  50 2.69  28 2.70  30 2.70
                            54 2.70   7 2.72  41 2.72  37 2.72
  27  0.071  0.437  0.467-  45 2.66  57 2.66  55 2.67  43 2.68  29 2.69  25 2.69  49 2.70  10 2.70
                            40 2.70  51 2.70   3 2.71  38 2.72
  28  0.572  0.438  0.466-  46 2.67  58 2.67  30 2.68  44 2.68  26 2.70  56 2.70  50 2.70  39 2.71
                             4 2.71  37 2.72   9 2.72  52 2.84
  29  0.071  0.770  0.466-  57 2.66  59 2.66  45 2.68  53 2.68  47 2.69  27 2.69  25 2.69  40 2.69
                            51 2.70  42 2.71  12 2.71   5 2.75
  30  0.572  0.769  0.466-  28 2.68  58 2.68  46 2.68  48 2.69  26 2.70  60 2.70  54 2.70   6 2.71
                            39 2.71  41 2.72  11 2.72  52 2.83
  31  0.237  0.100  0.606-  67 2.06  35 2.66  13 2.68  65 2.69  47 2.69  61 2.70   7 2.71  43 2.73
                            33 2.74  59 2.79  55 2.79
  32  0.738  0.104  0.608-  14 2.62  62 2.63  66 2.65  34 2.68  36 2.69  44 2.74  48 2.74   8 2.75
                            60 2.77  56 2.79
  33  0.238  0.440  0.606-  67 2.06  35 2.66  15 2.69  63 2.69  45 2.70  61 2.70   9 2.71  31 2.74
                            43 2.74  57 2.77  55 2.79
  34  0.738  0.436  0.605-  62 2.64  16 2.65  64 2.68  32 2.68  36 2.70  10 2.71  44 2.71  46 2.72
                            58 2.73  56 2.74
  35  0.239  0.770  0.604-  17 2.66  33 2.66  31 2.66  65 2.67  63 2.67  11 2.68  47 2.72  45 2.72
                            57 2.73  59 2.75
  36  0.738  0.771  0.604-  18 2.64  66 2.68  32 2.69  12 2.69  64 2.70  34 2.70  60 2.71  48 2.71
                            58 2.72  46 2.72
  37  0.402  0.271  0.432-  21 2.65  19 2.65  55 2.66   9 2.67  50 2.67   7 2.68  39 2.68  41 2.70
                            28 2.72   1 2.72   3 2.72  26 2.72
  38  0.902  0.271  0.433-  20 2.64  10 2.66  56 2.66   8 2.68  22 2.69  49 2.69  40 2.69   4 2.70
                            42 2.70  27 2.72  25 2.72   2 2.72
  39  0.402  0.603  0.432-  21 2.65  23 2.65  11 2.66  57 2.68   9 2.68  37 2.68  41 2.69  30 2.71
                            28 2.71   3 2.71   5 2.74  52 2.83
  40  0.904  0.604  0.432-  10 2.68  12 2.68  42 2.68  38 2.69  29 2.69  51 2.70  58 2.70  24 2.70
                            27 2.70  22 2.71   6 2.73   4 2.74
  41  0.402  0.937  0.432-  23 2.65  59 2.65  19 2.65  11 2.66  54 2.68   7 2.69  39 2.69  37 2.70
                             1 2.71  30 2.72  26 2.72   5 2.74
  42  0.902  0.936  0.432-  20 2.64  24 2.67  12 2.67  40 2.68   8 2.69  60 2.69  53 2.69   6 2.69
                            38 2.70  29 2.71   2 2.72  25 2.72
  43  0.070  0.270  0.568-  27 2.68  25 2.68  47 2.68  45 2.69   8 2.69  62 2.70  55 2.70  13 2.70
                            10 2.70  15 2.71  31 2.73  33 2.74
  44  0.571  0.271  0.568-  16 2.65  14 2.65  26 2.66  56 2.68  28 2.68  46 2.68  48 2.69   9 2.71
                             7 2.71  34 2.71  32 2.74  61 2.83
  45  0.071  0.603  0.567-  17 2.64  27 2.66  57 2.66  29 2.68  15 2.69  64 2.69  43 2.69  33 2.70
                            47 2.70  10 2.72  12 2.72  35 2.72
  46  0.571  0.603  0.568-  16 2.65  18 2.65  58 2.66  28 2.67  63 2.67  30 2.68  44 2.68  48 2.70
                             9 2.72  36 2.72  34 2.72  11 2.72
  47  0.071  0.938  0.568-  17 2.64  13 2.67  25 2.67  43 2.68  29 2.69  59 2.69  66 2.69  31 2.69
                            45 2.70   8 2.71  35 2.72  12 2.72
  48  0.571  0.937  0.568-  14 2.65  60 2.65  18 2.65  26 2.66  65 2.68  30 2.69  44 2.69  46 2.70
                            36 2.71   7 2.72  11 2.72  32 2.74
  49  0.067  0.272  0.364-  22 2.60  20 2.64  51 2.67   3 2.68  38 2.69   1 2.70  27 2.70  25 2.71
                            53 2.71
  50  0.567  0.267  0.364-  21 2.64  19 2.64  54 2.64   2 2.67  37 2.67   4 2.69  26 2.69  28 2.70
                            52 2.72
  51  0.071  0.603  0.363-   5 2.63   3 2.64  49 2.67  22 2.68  24 2.69  53 2.69  29 2.70  40 2.70
                            27 2.70
  52  0.572  0.604  0.356-  68 2.03  23 2.63  21 2.64   4 2.70   6 2.70  54 2.72  50 2.72  30 2.83
                            39 2.83  28 2.84
  53  0.068  0.936  0.364-  24 2.62  20 2.65   5 2.65   1 2.68  29 2.68  42 2.69  51 2.69  25 2.70
                            49 2.71
  54  0.567  0.940  0.363-  23 2.63  19 2.64  50 2.64   2 2.67  41 2.68   6 2.69  26 2.70  30 2.70
                            52 2.72
  55  0.237  0.271  0.499-  37 2.66  27 2.67  25 2.67   9 2.67   7 2.68  43 2.70  57 2.71  59 2.71
                             1 2.72   3 2.73  31 2.79  33 2.79
  56  0.738  0.268  0.501-  60 2.65   8 2.66  38 2.66  10 2.66  26 2.67  44 2.68  28 2.70  58 2.71
                             2 2.73  34 2.74   4 2.77  32 2.79
  57  0.236  0.606  0.499-  59 2.65  29 2.66  45 2.66  27 2.66  11 2.67  39 2.68   9 2.70  55 2.71
                            35 2.73   3 2.74  33 2.77   5 2.79
  58  0.737  0.603  0.501-  46 2.66  10 2.67  12 2.67  28 2.67  30 2.68  40 2.70  56 2.71  60 2.71
                            36 2.72  34 2.73   6 2.79   4 2.79
  59  0.236  0.934  0.498-  57 2.65  41 2.65  29 2.66  25 2.67  11 2.67  47 2.69   7 2.70   1 2.71
                            55 2.71  35 2.75   5 2.76  31 2.79
  60  0.737  0.939  0.502-  56 2.65  48 2.65   8 2.66  12 2.67  26 2.67  42 2.69  30 2.70  36 2.71
                            58 2.71   2 2.75  32 2.77   6 2.79
  61  0.401  0.270  0.644-  67 2.03  14 2.63  16 2.64  33 2.70  31 2.70  65 2.72  63 2.72   7 2.83
                            44 2.83   9 2.84
  62  0.903  0.271  0.637-  32 2.63  34 2.64  64 2.67  15 2.68  13 2.69  66 2.69   8 2.70  43 2.70
                            10 2.71
  63  0.407  0.606  0.636-  16 2.63  18 2.64  65 2.64  35 2.67  46 2.67  33 2.69  11 2.70   9 2.70
                            61 2.72
  64  0.906  0.602  0.636-  15 2.60  17 2.64  62 2.67  34 2.68  45 2.69  36 2.70  10 2.70  12 2.71
                            66 2.71
  65  0.406  0.934  0.637-  14 2.63  18 2.64  63 2.64  35 2.67  48 2.68  31 2.69  11 2.70   7 2.70
                            61 2.72
  66  0.905  0.937  0.636-  13 2.62  17 2.65  32 2.65  36 2.68   8 2.68  47 2.69  62 2.69  12 2.70
                            64 2.71
  67  0.256  0.270  0.673-  69 1.26  61 2.03  33 2.06  31 2.06
  68  0.718  0.603  0.327-  70 1.26  52 2.03   4 2.06   6 2.06
  69  0.198  0.270  0.717-  67 1.26  15 2.45  13 2.45
  70  0.775  0.603  0.283-  68 1.26  22 2.45  24 2.46

  LATTYP: Found a simple orthorhombic cell.
 ALAT       =     8.0704000000
 B/A-ratio  =     1.6329797800
 C/A-ratio  =     2.8208886800

  Lattice vectors:

 A1 = (   0.0000000000,  -8.0704000000,   0.0000000000)
 A2 = ( -13.1788000165,   0.0000000000,   0.0000000000)
 A3 = (   0.0000000000,   0.0000000000, -22.7657000031)
 Subroutine PRICEL returns:
[...]
  Ewald   211457.57 212263.35-241922.88     -0.44      1.66    266.69
  Hartree 221543.11 222208.58-217988.73     -1.00      0.77    203.32
  E(xc)    -2904.93  -2905.72  -2915.29      0.04      0.01      0.45
  Local  -440791.28-442298.41 452028.70      1.93     -2.23   -480.51
  n-local  -1937.33  -1931.42  -2005.14      0.34      0.16     13.58
  augment   2937.25   2943.46   2987.93     -0.34     -0.10     -6.92
  Kinetic   7707.91   7737.77   7832.13     -0.49     -0.22      3.70
  Total       -5.12      0.19     -0.71      0.03      0.03      0.30
  in kB       -3.39      0.13     -0.47      0.02      0.02      0.20

 VOLUME and BASIS-vectors are now :
  energy-cutoff  :      500.00
  volume of cell :     2421.32
      direct lattice vectors                 reciprocal lattice vectors
    13.178800017  0.000000000  0.000000000     0.075879443  0.000000000  0.000000000
     0.000000000  8.070400000  0.000000000     0.000000000  0.123909596  0.000000000
     0.000000000  0.000000000 22.765700003     0.000000000  0.000000000  0.043925730

  length of vectors
    13.178800017  8.070400000 22.765700003     0.075879443  0.123909596  0.043925730

 FORCES acting on ions
    electron-ion (+dipol)            ewald-force                    non-local-force                 convergence-correction
   0.167E+02 -.386E+01 0.164E+04   -.172E+02 0.380E+01 -.164E+04   0.414E+00 0.467E-01 0.194E+00   0.163E+00 0.133E-01 -.363E-01
   0.226E+02 0.108E+01 0.159E+04   -.227E+02 -.110E+01 -.159E+04   0.259E+00 0.576E-02 0.443E-01   -.170E+00 0.157E-01 -.493E-01
   0.103E+02 0.647E+01 0.164E+04   -.108E+02 -.642E+01 -.164E+04   0.328E+00 -.323E-01 0.197E+00   0.158E+00 -.130E-01 -.318E-01
   0.257E+02 0.922E+02 0.148E+04   -.257E+02 -.930E+02 -.148E+04   0.143E+00 0.880E+00 -.304E+00   -.152E+00 -.233E-01 -.527E-01
   0.102E+02 -.274E+01 0.168E+04   -.107E+02 0.274E+01 -.168E+04   0.356E+00 -.439E-02 0.305E+00   0.158E+00 -.682E-03 -.331E-01
   0.266E+02 -.926E+02 0.147E+04   -.266E+02 0.935E+02 -.147E+04   0.165E+00 -.894E+00 -.299E+00   -.160E+00 0.850E-02 -.507E-01
   -.138E+01 0.252E+00 -.499E+03   0.124E+01 -.229E+00 0.499E+03   0.139E+00 -.387E-01 0.108E+00   0.700E-02 0.173E-01 -.421E-01
   0.266E+02 0.335E+01 -.517E+03   -.268E+02 -.340E+01 0.517E+03   0.163E+00 0.230E-01 0.712E-01   -.270E-01 0.242E-01 0.989E-01
   -.222E+01 0.127E+00 -.495E+03   0.210E+01 -.120E+00 0.495E+03   0.114E+00 0.135E-01 0.158E+00   0.603E-02 -.180E-01 -.346E-01
   0.253E+02 -.288E+01 -.513E+03   -.254E+02 0.292E+01 0.513E+03   0.179E+00 -.140E-01 0.578E-01   -.177E-01 -.259E-01 0.951E-01
   0.776E+00 -.299E+00 -.483E+03   -.949E+00 0.261E+00 0.483E+03   0.164E+00 0.370E-01 0.986E-01   0.904E-02 0.204E-03 -.412E-01
   0.203E+02 -.485E+00 -.519E+03   -.205E+02 0.490E+00 0.519E+03   0.176E+00 -.705E-02 0.461E-02   -.242E-01 0.259E-02 0.930E-01
   0.559E+02 0.711E+02 -.227E+04   -.578E+02 -.723E+02 0.227E+04   0.190E+01 0.122E+01 0.324E+01   -.722E-02 0.109E-01 0.237E-01
   -.118E+03 0.732E+01 -.231E+04   0.117E+03 -.720E+01 0.231E+04   0.679E+00 -.134E+00 0.277E+01   -.905E-02 0.147E-01 0.494E-03
   0.551E+02 -.714E+02 -.227E+04   -.570E+02 0.726E+02 0.227E+04   0.188E+01 -.120E+01 0.322E+01   -.538E-02 -.702E-02 0.236E-01
   -.123E+03 -.792E+01 -.231E+04   0.122E+03 0.780E+01 0.231E+04   0.825E+00 0.123E+00 0.284E+01   -.179E-01 -.522E-02 0.530E-02
   -.456E+02 -.206E-01 -.230E+04   0.449E+02 0.268E-01 0.230E+04   0.752E+00 -.879E-04 0.269E+01   -.261E-02 -.450E-02 0.401E-01
   -.111E+03 0.565E+00 -.232E+04   0.110E+03 -.559E+00 0.232E+04   0.844E+00 0.492E-02 0.287E+01   -.164E-01 -.966E-02 0.201E-01
   0.111E+03 -.556E+00 0.232E+04   -.110E+03 0.541E+00 -.232E+04   -.845E+00 -.354E-02 -.287E+01   0.714E-01 0.186E-01 0.133E-01
   0.457E+02 0.112E+00 0.230E+04   -.449E+02 -.136E+00 -.230E+04   -.752E+00 0.157E-02 -.269E+01   -.529E-01 0.221E-01 -.709E-01
   0.123E+03 0.796E+01 0.231E+04   -.122E+03 -.780E+01 -.231E+04   -.825E+00 -.122E+00 -.284E+01   0.598E-01 -.321E-01 0.139E-01
   -.550E+02 0.713E+02 0.227E+04   0.569E+02 -.724E+02 -.227E+04   -.188E+01 0.120E+01 -.322E+01   -.551E-01 -.114E-01 -.786E-01
   0.118E+03 -.735E+01 0.231E+04   -.117E+03 0.720E+01 -.231E+04   -.679E+00 0.135E+00 -.278E+01   0.572E-01 0.139E-01 0.139E-01
   -.558E+02 -.711E+02 0.227E+04   0.577E+02 0.723E+02 -.227E+04   -.190E+01 -.122E+01 -.324E+01   -.610E-01 -.871E-02 -.863E-01
   -.204E+02 0.473E+00 0.519E+03   0.205E+02 -.504E+00 -.519E+03   -.176E+00 0.826E-02 -.376E-02   0.897E-01 0.237E-01 0.401E-01
   -.696E+00 0.304E+00 0.483E+03   0.937E+00 -.277E+00 -.483E+03   -.163E+00 -.358E-01 -.983E-01   -.774E-01 0.121E-01 -.982E-01
   -.253E+02 0.293E+01 0.513E+03   0.254E+02 -.292E+01 -.513E+03   -.179E+00 0.154E-01 -.563E-01   0.881E-01 -.239E-01 0.409E-01
   0.231E+01 -.758E-01 0.495E+03   -.211E+01 0.110E+00 -.495E+03   -.114E+00 -.120E-01 -.158E+00   -.782E-01 -.236E-01 -.861E-01
   -.267E+02 -.337E+01 0.517E+03   0.268E+02 0.339E+01 -.517E+03   -.163E+00 -.217E-01 -.698E-01   0.974E-01 -.683E-03 0.351E-01
   0.146E+01 -.299E+00 0.500E+03   -.125E+01 0.246E+00 -.499E+03   -.139E+00 0.400E-01 -.107E+00   -.757E-01 0.121E-01 -.899E-01
   -.266E+02 0.925E+02 -.147E+04   0.267E+02 -.934E+02 0.147E+04   -.165E+00 0.895E+00 0.299E+00   0.221E-01 0.147E-01 0.977E-02
   -.103E+02 0.271E+01 -.168E+04   0.107E+02 -.274E+01 0.168E+04   -.356E+00 0.560E-02 -.304E+00   0.379E-03 0.226E-01 0.405E-01
   -.257E+02 -.922E+02 -.148E+04   0.258E+02 0.931E+02 0.148E+04   -.143E+00 -.879E+00 0.304E+00   0.244E-01 -.853E-02 0.142E-01
   -.105E+02 -.643E+01 -.164E+04   0.108E+02 0.642E+01 0.164E+04   -.328E+00 0.336E-01 -.196E+00   -.793E-02 -.283E-01 0.444E-01
   -.225E+02 -.102E+01 -.159E+04   0.227E+02 0.103E+01 0.159E+04   -.259E+00 -.411E-02 -.438E-01   0.263E-01 -.678E-02 0.273E-01
   -.168E+02 0.386E+01 -.164E+04   0.172E+02 -.382E+01 0.164E+04   -.414E+00 -.454E-01 -.194E+00   -.930E-02 0.611E-02 0.486E-01
   0.308E+02 0.140E+01 0.985E+03   -.310E+02 -.133E+01 -.985E+03   0.146E+00 -.604E-01 0.292E-01   0.559E-01 -.535E-02 -.941E-01
   0.396E+01 0.123E+02 0.958E+03   -.418E+01 -.123E+02 -.958E+03   0.272E+00 -.714E-01 0.128E+00   -.524E-01 0.200E-02 -.708E-03
   0.264E+02 -.507E+00 0.990E+03   -.266E+02 0.532E+00 -.990E+03   0.109E+00 -.110E-01 0.135E+00   0.416E-01 -.152E-01 -.830E-01
   -.779E+01 0.930E+00 0.945E+03   0.778E+01 -.925E+00 -.945E+03   0.632E-01 0.152E-01 -.687E-01   -.554E-01 -.210E-01 -.626E-02
   0.309E+02 -.105E+01 0.985E+03   -.311E+02 0.956E+00 -.985E+03   0.157E+00 0.738E-01 0.733E-01   0.535E-01 0.211E-01 -.920E-01
   0.601E+01 -.134E+02 0.958E+03   -.619E+01 0.133E+02 -.958E+03   0.247E+00 0.622E-01 0.131E+00   -.609E-01 0.185E-01 0.139E-02
   0.783E+01 -.901E+00 -.945E+03   -.780E+01 0.916E+00 0.945E+03   -.640E-01 -.139E-01 0.704E-01   0.338E-01 0.936E-03 0.816E-01
   -.264E+02 0.523E+00 -.990E+03   0.266E+02 -.533E+00 0.990E+03   -.108E+00 0.123E-01 -.134E+00   -.312E-01 -.144E-03 -.138E-01
   -.395E+01 -.123E+02 -.958E+03   0.418E+01 0.123E+02 0.958E+03   -.272E+00 0.729E-01 -.127E+00   0.398E-01 -.247E-01 0.867E-01
   -.309E+02 -.137E+01 -.985E+03   0.310E+02 0.134E+01 0.985E+03   -.145E+00 0.620E-01 -.292E-01   -.412E-01 -.213E-01 -.105E-01
   -.596E+01 0.134E+02 -.958E+03   0.617E+01 -.133E+02 0.958E+03   -.248E+00 -.610E-01 -.129E+00   0.386E-01 0.241E-01 0.844E-01
   -.310E+02 0.101E+01 -.985E+03   0.311E+02 -.959E+00 0.985E+03   -.156E+00 -.728E-01 -.732E-01   -.310E-01 0.207E-01 -.196E-01
   -.150E+03 0.146E+02 0.202E+04   0.150E+03 -.145E+02 -.202E+04   0.322E+00 -.928E-01 -.784E+00   0.848E-01 0.347E-02 -.510E-01
   -.629E+02 0.243E+02 0.199E+04   0.626E+02 -.244E+02 -.199E+04   0.438E+00 0.139E+00 -.894E+00   -.100E+00 -.158E-01 -.362E-01
   -.145E+03 0.550E+00 0.202E+04   0.145E+03 -.547E+00 -.202E+04   0.199E+00 0.162E-01 -.803E+00   0.926E-01 -.192E-01 -.507E-01
   0.590E+02 0.103E+01 0.200E+04   -.594E+02 -.101E+01 -.200E+04   0.530E+00 0.382E-03 0.349E+00   -.913E-01 -.151E-01 -.256E-01
   -.144E+03 -.150E+02 0.202E+04   0.143E+03 0.149E+02 -.202E+04   0.309E+00 0.790E-01 -.779E+00   0.964E-01 0.157E-01 -.527E-01
   -.629E+02 -.257E+02 0.199E+04   0.626E+02 0.258E+02 -.199E+04   0.421E+00 -.141E+00 -.911E+00   -.960E-01 0.326E-01 -.309E-01
   -.659E+01 0.561E+00 0.401E+02   0.654E+01 -.565E+00 -.401E+02   -.369E-01 0.270E-02 -.387E-02   0.876E-01 0.233E-02 -.289E-03
   0.110E+02 -.516E+00 -.357E+02   -.109E+02 0.534E+00 0.357E+02   -.246E-01 -.124E-01 0.354E-01   -.878E-01 -.588E-02 0.102E-01
   -.110E+02 0.533E+00 0.357E+02   0.109E+02 -.527E+00 -.357E+02   0.247E-01 0.133E-01 -.345E-01   0.917E-01 -.187E-01 -.507E-02
   0.659E+01 -.527E+00 -.402E+02   -.654E+01 0.546E+00 0.402E+02   0.370E-01 -.125E-02 0.475E-02   -.893E-01 -.176E-01 0.296E-02
   -.681E+01 -.111E+01 0.457E+02   0.674E+01 0.111E+01 -.457E+02   -.222E-01 -.157E-01 0.475E-03   0.922E-01 0.161E-01 -.740E-02
   0.680E+01 0.105E+01 -.457E+02   -.674E+01 -.109E+01 0.457E+02   0.222E-01 0.165E-01 0.601E-03   -.891E-01 0.241E-01 0.344E-02
   -.588E+02 -.104E+01 -.200E+04   0.594E+02 0.103E+01 0.200E+04   -.531E+00 0.849E-03 -.348E+00   -.755E-02 0.100E-01 -.480E-02
   0.145E+03 -.533E+00 -.202E+04   -.145E+03 0.552E+00 0.202E+04   -.199E+00 -.147E-01 0.804E+00   0.874E-03 -.278E-02 0.491E-01
   0.631E+02 -.243E+02 -.199E+04   -.626E+02 0.244E+02 0.199E+04   -.437E+00 -.138E+00 0.894E+00   -.126E-01 -.196E-01 0.120E-01
   0.150E+03 -.145E+02 -.202E+04   -.150E+03 0.145E+02 0.202E+04   -.322E+00 0.941E-01 0.785E+00   0.824E-02 -.207E-01 0.679E-01
   0.630E+02 0.256E+02 -.199E+04   -.626E+02 -.258E+02 0.199E+04   -.421E+00 0.142E+00 0.911E+00   -.136E-01 0.824E-02 0.446E-02
   0.144E+03 0.149E+02 -.202E+04   -.143E+03 -.149E+02 0.202E+04   -.309E+00 -.776E-01 0.780E+00   -.449E-04 0.229E-01 0.639E-01
   -.103E+03 0.469E+00 -.941E+03   0.111E+03 -.473E+00 0.934E+03   -.751E+01 0.270E-02 0.682E+01   0.281E-02 0.302E-02 0.157E-02
   0.103E+03 -.473E+00 0.941E+03   -.111E+03 0.480E+00 -.935E+03   0.750E+01 -.148E-02 -.682E+01   -.623E-01 -.621E-02 -.140E-01
   0.121E+02 -.101E+00 -.174E+04   -.334E+02 0.133E+00 0.178E+04   0.213E+02 -.354E-01 -.421E+02   0.539E-02 0.232E-02 -.493E-02
   -.119E+02 0.942E-01 0.174E+04   0.333E+02 -.120E+00 -.178E+04   -.213E+02 0.351E-01 0.421E+02   -.626E-01 -.796E-02 -.311E-01
   0.111E+00 0.760E-02 0.302E+00   -.924E-13 -.382E-13 0.318E-11   0.340E-01 0.407E-01 -.204E-02   -.148E+00 -.731E-02 -.305E+00

 POSITION                                       TOTAL-FORCE (eV/Angst)
      3.09936      0.83240      9.00464        -0.001209      0.000445     -0.001929
      9.67619      0.83503      9.00793        -0.001132     -0.000403      0.000751
      3.10076      3.53235      8.99009        -0.001311     -0.001398     -0.001884
      9.69819      3.49865      8.97116        -0.001257      0.002054     -0.004782
      3.09916      6.21546      8.91746         0.000487      0.001553      0.001806
      9.70234      6.24051      8.97631         0.000787     -0.002467     -0.005866
      5.29454      0.84347     12.16599         0.002077      0.001732     -0.001433
     11.89596      0.83471     12.16098         0.003827      0.000117     -0.000580
      5.29478      3.51857     12.15760         0.000645      0.001372     -0.000238
     11.88890      3.52389     12.14503         0.001709     -0.001378      0.001655
      5.29259      6.21522     12.13703        -0.000283     -0.002084     -0.002177
     11.88515      6.21536     12.14995         0.004255     -0.000069     -0.000541
      0.88605      0.79552     15.25530        -0.001912      0.000910     -0.002707
      7.48750      0.83197     15.20225         0.002725      0.000984      0.004165
      0.88218      3.55910     15.26412        -0.001660     -0.000849     -0.003428
      7.49314      3.52656     15.20536         0.001271     -0.000936      0.002094
      0.91314      6.21389     15.19157         0.002810      0.000984     -0.000390
      7.52271      6.21200     15.20763        -0.001120      0.000915      0.000057
      5.30675      0.83867      7.55813         0.002270     -0.001064      0.003182
     11.91624      0.83657      7.57415        -0.003326     -0.001012     -0.001082
      5.33637      3.52412      7.56034        -0.000417      0.000919      0.000400
     11.94738      3.49102      7.50164        -0.001102      0.002571      0.000935
      5.34200      6.21873      7.56345        -0.002121     -0.000978     -0.002128
     11.94346      6.25452      7.51055        -0.000728     -0.002614     -0.000519
      0.94437      0.83528     10.61572        -0.003723      0.000241      0.000957
      7.53693      0.83552     10.62869         0.000152      0.001988      0.000912
      0.94062      3.52675     10.62059        -0.001093      0.001282     -0.000544
      7.53473      3.53215     10.60805        -0.001092     -0.001511      0.000052
      0.93353      6.21592     10.60462        -0.003526     -0.000071      0.001854
      7.53493      6.20723     10.59973        -0.002297     -0.001417      0.001098
      3.12714      0.80967     13.78950        -0.000128      0.003219      0.004811
      9.73030      0.83526     13.84827        -0.000214     -0.001376     -0.001501
      3.13128      3.55150     13.79457         0.002205     -0.002666      0.003992
      9.72872      3.51835     13.77549         0.001455      0.001310      0.002224
      3.15325      6.21537     13.75771         0.001027      0.000377     -0.000673
      9.73013      6.21831     13.76107         0.001667     -0.000466      0.002505
      5.30308      2.18469      9.84558         0.001064     -0.000283     -0.000443
     11.88752      2.18510      9.84734        -0.001381      0.001568      0.000480
      5.30327      4.86754      9.83940         0.000436     -0.001312      0.002230
     11.90952      4.87294      9.83346        -0.000367     -0.001656     -0.000626
      5.30437      7.55998      9.84470         0.001954      0.000389      0.001146
     11.88838      7.55406      9.84054        -0.000580      0.000452      0.000522
      0.91999      2.17763     12.93219        -0.000043      0.001679      0.001657
      7.52616      2.18325     12.92633        -0.000379      0.001362     -0.003048
      0.94204      4.86546     12.91836         0.001037     -0.001539      0.000074
      7.52641      4.86608     12.92017        -0.000417      0.000618     -0.001107
      0.94110      7.56690     12.92509        -0.000041     -0.000387      0.000608
      7.52512      7.56122     12.92108        -0.001214     -0.000673     -0.002768
      0.88871      2.19393      8.27666        -0.000181     -0.000262      0.000912
      7.47119      2.15810      8.28175        -0.003336     -0.000895      0.007389
      0.93280      4.86468      8.26979        -0.001485     -0.000751     -0.004343
      7.54089      4.87314      8.10198        -0.005598     -0.001385      0.003631
      0.90015      7.55541      8.27903        -0.001335      0.000657     -0.001168
      7.47868      7.58430      8.27295        -0.002153      0.000750      0.003636
      3.11985      2.18321     11.36215         0.001992      0.000368      0.000511
      9.72374      2.16189     11.39793        -0.000339     -0.000462      0.000258
      3.10578      4.88862     11.36774         0.000284      0.000245     -0.000246
      9.70966      4.86741     11.40353        -0.002019     -0.000179     -0.000489
      3.11582      7.54116     11.34374         0.002991     -0.000268     -0.000215
      9.71365      7.57976     11.42191        -0.002985      0.000258     -0.000150
      5.28853      2.17733     14.66386         0.001540      0.001428     -0.002408
     11.89665      2.18586     14.49599         0.002440      0.000792      0.001415
      5.35825      4.89224     14.48391         0.001720      0.000042     -0.004984
     11.94079      4.85652     14.48902         0.001112      0.000260     -0.001927
      5.35086      7.53643     14.49272         0.000505      0.000182     -0.001263
     11.92920      7.56557     14.48663         0.002620     -0.000489     -0.000703
      3.36775      2.17970     15.31535         0.022329      0.000733     -0.020142
      9.46125      4.87034      7.45088         0.006872     -0.001018     -0.017536
      2.60966      2.18203     16.31947        -0.004103     -0.000909      0.033051
     10.21938      4.86800      6.44575        -0.020657      0.000473      0.004997
    total drift:                               -0.002865      0.040998     -0.005125

  FORCES: max atom, RMS     0.033317    0.007110
  FORCE total and by dimension    0.059489    0.033051

 reached required accuracy - stopping structural energy minimisation
 writing wavefunctions